c Pebbling pyramidal / or / H =4
p cnf 20 85
1 2 0
3 4 0
5 6 0
7 8 0
-1 -3 9 10 0
-1 -4 9 10 0
-2 -3 9 10 0
-2 -4 9 10 0
-3 -5 11 12 0
-3 -6 11 12 0
-4 -5 11 12 0
-4 -6 11 12 0
-5 -7 13 14 0
-5 -8 13 14 0
-6 -7 13 14 0
-6 -8 13 14 0
-9 -11 15 16 0
-9 -12 15 16 0
-10 -11 15 16 0
-10 -12 15 16 0
-11 -13 17 18 0
-11 -14 17 18 0
-12 -13 17 18 0
-12 -14 17 18 0
-15 -17 0
-15 -18 0
-16 -17 0
-16 -18 0
-9 -2 -7 0
16 -6 18 0
-9 -14 17 0
10 -15 16 0
11 -15 -4 0
13 18 4 0
-7 17 6 0
10 -20 19 0
-15 16 4 0
-4 8 16 0
-7 20 8 0
-11 6 13 0
8 -4 15 0
10 -19 8 0
16 -20 -10 0
15 5 10 0
-20 7 -13 0
11 16 2 0
-1 11 4 0
-17 -5 12 0
-2 -16 6 0
-6 -20 1 0
20 16 14 0
-13 -17 8 0
-3 2 -7 0
7 5 -17 0
-3 20 -17 0
18 -12 4 0
3 -19 10 0
-4 17 6 0
6 -10 20 0
-1 19 -11 0
-18 7 14 0
20 10 15 0
-2 17 1 0
1 -8 10 0
13 -8 10 0
-4 15 -17 0
2 12 16 0
10 -4 3 0
-17 -11 -16 0
-8 15 -4 0
-1 5 16 0
-8 -5 14 0
-12 -10 -15 0
18 -11 -13 0
5 17 7 0
1 17 -19 0
-16 5 -11 0
-19 -2 -8 0
-14 6 -5 0
4 5 -16 0
-6 -1 20 0
-2 -16 -6 0
4 -17 13 0
-4 17 -16 0
5 19 16 0
